! r2SCAN-3c  def2-QZVP OPT FREQ 
%pal nprocs 10 end
    %freq
        Temp 300, 400
        Pressure 1.0, 2.0
    end
     
*xyz 0 1 
O   0.8946 -2.5997 -0.2443
C   0.5691 -1.5462 0.6536
C   0.5141 -0.2387 -0.127
C   0.148 0.9705 0.7359
C   1.3449 1.7726 1.2543
C   2.2487 1.01 2.2072
H   0.9148 -3.4213 0.2755
H   -0.4024 -1.7676 1.1072
H   1.3267 -1.5214 1.4397
H   1.4575 -0.0737 -0.6615
H   -0.2455 -0.353 -0.9119
H   -0.4949 0.67 1.5718
H   -0.4506 1.6535 0.1193
H   1.9389 2.1393 0.4087
H   0.9625 2.6592 1.7746
H   2.9906 1.6872 2.6428
H   1.6752 0.5647 3.0259
H   2.7957 0.2182 1.6876
*
